4
20
50
40	29
1	1	15	8	
2	4	5	7	11	5	5	5	10	8	
3	1	27	2	
4	4	6	10	13	8	25	4	9	3	
5	1	13	7	
6	1	5	3	
7	4	7	13	18	4	6	9	12	4	
8	2	13	6	10	3	
9	4	18	3	15	4	9	6	8	5	
10	1	12	2	
11	3	8	9	8	11	14	6	
12	2	19	3	15	3	
13	2	12	2	4	14	
14	4	5	10	12	7	7	12	9	3	
15	2	29	3	6	8	
16	3	13	4	19	2	8	12	
17	3	16	2	11	7	5	12	
18	4	4	10	15	4	29	2	5	13	
19	2	14	4	26	4	
20	2	5	7	8	12	
